NAME : portgen-50-302
COMMENT : portgen N=50, seed=302
TYPE : TSP
DIMENSION : 50
EDGE_WEIGHT_TYPE : EUC_2D
NODE_COORD_SECTION
1 676 119
2 1648 983
3 2111 2187
4 658 2567
5 1895 2183
6 167 866
7 2575 2327
8 2010 2032
9 2228 1567
10 1628 1021
11 803 1467
12 2351 2011
13 1951 208
14 3076 2011
15 66 1855
16 2465 950
17 1635 2341
18 1014 289
19 1110 1567
20 1291 736
21 1986 83
22 1274 316
23 2766 866
24 2919 2686
25 2989 515
26 445 1649
27 3144 1904
28 2664 2888
29 1647 2469
30 3131 1821
31 1076 2253
32 1276 1159
33 197 83
34 2755 2259
35 2724 1143
36 2275 2704
37 1740 1112
38 576 2317
39 1486 446
40 2509 2225
41 1724 606
42 2043 1408
43 778 211
44 2837 475
45 2144 930
46 697 2014
47 2006 147
48 1624 2445
49 1506 161
50 2902 449
